problem_generation/data/GISP/train/er_n=65_m=1204_p=0.60_SET2_setparam=100.00_alpha=0.50_423.lp
maximize
OBJ:100x0 + 100x1 + 100x2 + 100x3 + 100x4 + 100x5 + 100x6 + 100x7 + 100x8 + 100x9 + 100x10 + 100x11 + 100x12 + 100x13 + 100x14 + 100x15 + 100x16 + 100x17 + 100x18 + 100x19 + 100x20 + 100x21 + 100x22 + 100x23 + 100x24 + 100x25 + 100x26 + 100x27 + 100x28 + 100x29 + 100x30 + 100x31 + 100x32 + 100x33 + 100x34 + 100x35 + 100x36 + 100x37 + 100x38 + 100x39 + 100x40 + 100x41 + 100x42 + 100x43 + 100x44 + 100x45 + 100x46 + 100x47 + 100x48 + 100x49 + 100x50 + 100x51 + 100x52 + 100x53 + 100x54 + 100x55 + 100x56 + 100x57 + 100x58 + 100x59 + 100x60 + 100x61 + 100x62 + 100x63 + 100x64 - y55_57 - y7_17 - y36_53 - y18_26 - y36_62 - y29_32 - y8_9 - y9_63 - y29_41 - y40_41 - y40_50 - y6_57 - y29_59 - y40_59 - y10_27 - y10_36 - y25_34 - y33_56 - y14_15 - y22_28 - y43_60 - y55_61 - y47_57 - y7_30 - y9_49 - y17_62 - y9_58 - y29_36 - y21_32 - y48_58 - y21_41 - y29_54 - y29_63 - y40_63 - y10_22 - y10_40 - y2_36 - y25_47 - y3_19 - y14_19 - y14_28 - y32_64 - y43_64 - y28_39 - y47_52 - y17_48 - y5_64 - y29_31 - y6_38 - y48_53 - y21_36 - y40_49 - y21_54 - y2_13 - y2_22 - y54_60 - y2_31 - y51_54 - y32_50 - y32_59 - y1_53 - y14_32 - y1_62 - y24_64 - y16_60 - y7_11 - y5_41 - y28_43 - y36_56 - y28_52 - y58_62 - y21_22 - y6_33 - y21_40 - y10_12 - y39_57 - y20_53 - y31_53 - y20_62 - y10_39 - y3_9 - y51_58 - y14_18 - y43_54 - y1_48 - y35_50 - y43_63 - y35_59 - y17_47 - y5_54 - y17_56 - y28_56 - y5_63 - y27_60 - y50_62 - y2_3 - y2_12 - y10_25 - y2_21 - y2_30 - y4_49 - y32_40 - y16_32 - y35_45 - y32_58 - y16_41 - y43_58 - y13_54 - y16_50 - y13_63 - y35_63 - y57_60 - y9_20 - y9_38 - y5_58 - y42_44 - y31_34 - y10_11 - y39_56 - y12_39 - y12_57 - y24_40 - y16_36 - y13_49 - y35_49 - y16_54 - y46_55 - y9_15 - y38_51 - y46_64 - y28_37 - y9_33 - y5_44 - y7_63 - y30_46 - y27_59 - y0_51 - y8_64 - y0_60 - y39_42 - y20_38 - y2_11 - y39_60 - y4_39 - y23_52 - y1_15 - y1_24 - y24_35 - y24_44 - y37_63 - y16_49 - y46_59 - y9_19 - y49_55 - y5_30 - y15_62 - y26_62 - y38_64 - y7_58 - y27_36 - y8_32 - y42_43 - y50_56 - y11_37 - y8_50 - y19_50 - y0_46 - y11_46 - y8_59 - y42_61 - y0_55 - y12_20 - y31_33 - y31_42 - y20_51 - y4_34 - y31_51 - y12_47 - y1_10 - y1_19 - y53_57 - y4_52 - y34_53 - y1_28 - y4_61 - y45_62 - y37_58 - y5_7 - y49_50 - y7_44 - y26_57 - y38_59 - y49_59 - y7_53 - y8_36 - y27_49 - y42_47 - y8_54 - y19_54 - y42_56 - y19_63 - y39_41 - y23_33 - y4_29 - y12_42 - y23_42 - y1_23 - y24_25 - y3_51 - y37_53 - y37_62 - y38_45 - y57_58 - y7_39 - y15_52 - y38_54 - y7_48 - y8_22 - y27_35 - y19_40 - y30_49 - y11_45 - y11_54 - y12_19 - y52_55 - y33_51 - y4_24 - y12_37 - y22_50 - y3_46 - y45_61 - y56_61 - y3_55 - y37_57 - y14_64 - y26_29 - y18_25 - y15_38 - y26_38 - y38_40 - y18_43 - y7_52 - y19_26 - y11_22 - y11_31 - y8_44 - y30_44 - y11_40 - y33_46 - y33_55 - y4_28 - y10_62 - y44_64 - y2_58 - y3_32 - y37_52 - y22_63 - y7_29 - y15_42 - y26_42 - y7_38 - y7_56 - y8_21 - y0_17 - y8_30 - y63_64 - y0_35 - y11_35 - y41_45 - y4_5 - y41_54 - y52_54 - y4_14 - y10_57 - y33_59 - y2_53 - y25_55 - y3_27 - y3_36 - y22_58 - y3_63 - y55_64 - y18_33 - y7_42 - y29_39 - y48_52 - y29_48 - y40_48 - y48_61 - y29_57 - y11_30 - y6_64 - y33_36 - y25_32 - y33_45 - y44_45 - y2_39 - y25_41 - y33_54 - y25_50 - y3_13 - y44_63 - y2_57 - y25_59 - y22_53 - y36_46 - y18_19 - y47_55 - y18_28 - y17_60 - y9_56 - y29_34 - y40_43 - y48_56 - y29_52 - y21_57 - y2_25 - y25_27 - y10_47 - y33_49 - y3_8 - y25_54 - y14_17 - y2_61 - y13_58 - y3_35 - y15_18 - y36_50 - y47_50 - y17_46 - y28_46 - y9_42 - y5_53 - y28_55 - y17_64 - y29_38 - y21_34 - y6_45 - y40_47 - y6_54 - y29_56 - y40_56 - y6_63 - y2_20 - y54_58 - y10_33 - y10_42 - y2_38 - y51_52 - y22_25 - y14_21 - y43_57 - y24_53 - y13_62 - y28_32 - y36_45 - y17_41 - y9_37 - y5_48 - y17_50 - y36_63 - y9_46 - y28_59 - y9_55 - y6_40 - y29_42 - y21_38 - y40_51 - y25_26 - y2_42 - y3_7 - y35_39 - y32_52 - y43_52 - y14_25 - y16_44 - y32_61 - y16_53 - y16_62 - y17_27 - y36_40 - y47_49 - y17_45 - y28_54 - y5_61 - y6_26 - y28_63 - y58_64 - y50_60 - y6_35 - y10_14 - y39_50 - y2_10 - y31_55 - y54_57 - y12_51 - y2_28 - y20_64 - y23_60 - y13_25 - y13_34 - y32_47 - y43_47 - y24_43 - y32_56 - y16_39 - y24_52 - y35_52 - y5_20 - y17_22 - y5_29 - y17_40 - y28_49 - y6_12 - y5_56 - y9_54 - y50_55 - y61_64 - y6_39 - y0_63 - y11_63 - y2_14 - y12_46 - y23_46 - y4_42 - y32_33 - y35_38 - y16_34 - y1_45 - y1_54 - y16_52 - y16_61 - y5_24 - y57_62 - y9_22 - y9_40 - y27_48 - y6_25 - y8_53 - y42_55 - y19_62 - y30_62 - y10_13 - y23_32 - y20_45 - y39_58 - y12_41 - y23_50 - y20_63 - y12_59 - y13_24 - y1_22 - y4_55 - y16_20 - y53_60 - y16_38 - y35_51 - y9_17 - y9_26 - y26_60 - y5_37 - y19_39 - y30_39 - y50_54 - y19_48 - y30_48 - y8_57 - y0_53 - y11_53 - y0_62 - y11_62 - y39_44 - y20_40 - y31_40 - y4_32 - y31_58 - y4_41 - y4_50 - y53_64 - y16_24 - y38_39 - y15_46 - y38_48 - y46_61 - y57_61 - y9_21 - y38_57 - y49_57 - y18_51 - y15_64 - y26_64 - y8_34 - y42_45 - y0_39 - y12_13 - y19_61 - y0_57 - y12_22 - y20_35 - y23_31 - y4_36 - y13_14 - y45_46 - y1_21 - y13_23 - y16_19 - y37_51 - y34_64 - y38_43 - y15_50 - y38_52 - y7_46 - y26_59 - y7_55 - y8_20 - y27_42 - y8_38 - y19_38 - y8_47 - y30_47 - y42_49 - y20_21 - y0_52 - y12_17 - y41_53 - y52_53 - y4_13 - y31_39 - y33_58 - y4_31 - y23_44 - y1_7 - y4_40 - y53_54 - y22_48 - y34_50 - y37_46 - y34_59 - y56_59 - y3_53 - y14_53 - y3_62 - y14_62 - y15_36 - y26_36 - y5_13 - y46_51 - y26_45 - y26_54 - y49_56 - y7_50 - y8_15 - y18_50 - y26_63 - y19_24 - y30_33 - y8_42 - y30_42 - y19_51 - y12_21 - y41_57 - y44_53 - y25_49 - y10_60 - y1_2 - y4_35 - y34_45 - y53_58 - y14_39 - y34_54 - y37_50 - y34_63 - y37_59 - y7_18 - y26_31 - y37_49 - y15_40 - y18_45 - y8_10 - y15_58 - y7_54 - y8_28 - y0_24 - y29_60 - y30_37 - y11_42 - y12_16 - y41_52 - y10_46 - y33_48 - y41_61 - y52_61 - y44_57 - y22_38 - y3_34 - y45_49 - y14_43 - y45_58 - y7_13 - y7_22 - y59_60 - y7_31 - y18_31 - y26_44 - y18_40 - y0_1 - y48_59 - y6_53 - y40_55 - y0_28 - y33_34 - y33_43 - y52_56 - y10_50 - y25_48 - y33_61 - y25_57 - y34_35 - y3_29 - y22_42 - y22_51 - y14_47
 Subject to
C1: x0+x1-y0_1 <=1 
C2: x0+x2 <=1 
C3: x0+x7 <=1 
C4: x0+x8 <=1 
C5: x0+x9 <=1 
C6: x0+x16 <=1 
C7: x0+x17-y0_17 <=1 
C8: x0+x20 <=1 
C9: x0+x22 <=1 
C10: x0+x24-y0_24 <=1 
C11: x0+x25 <=1 
C12: x0+x26 <=1 
C13: x0+x28-y0_28 <=1 
C14: x0+x29 <=1 
C15: x0+x30 <=1 
C16: x0+x32 <=1 
C17: x0+x33 <=1 
C18: x0+x35-y0_35 <=1 
C19: x0+x36 <=1 
C20: x0+x37 <=1 
C21: x0+x39-y0_39 <=1 
C22: x0+x42 <=1 
C23: x0+x45 <=1 
C24: x0+x46-y0_46 <=1 
C25: x0+x49 <=1 
C26: x0+x50 <=1 
C27: x0+x51-y0_51 <=1 
C28: x0+x52-y0_52 <=1 
C29: x0+x53-y0_53 <=1 
C30: x0+x55-y0_55 <=1 
C31: x0+x57-y0_57 <=1 
C32: x0+x58 <=1 
C33: x0+x60-y0_60 <=1 
C34: x0+x62-y0_62 <=1 
C35: x0+x63-y0_63 <=1 
C36: x0+x64 <=1 
C37: x1+x2-y1_2 <=1 
C38: x1+x4 <=1 
C39: x1+x7-y1_7 <=1 
C40: x1+x8 <=1 
C41: x1+x10-y1_10 <=1 
C42: x1+x13 <=1 
C43: x1+x14 <=1 
C44: x1+x15-y1_15 <=1 
C45: x1+x19-y1_19 <=1 
C46: x1+x20 <=1 
C47: x1+x21-y1_21 <=1 
C48: x1+x22-y1_22 <=1 
C49: x1+x23-y1_23 <=1 
C50: x1+x24-y1_24 <=1 
C51: x1+x26 <=1 
C52: x1+x27 <=1 
C53: x1+x28-y1_28 <=1 
C54: x1+x32 <=1 
C55: x1+x36 <=1 
C56: x1+x45-y1_45 <=1 
C57: x1+x46 <=1 
C58: x1+x48-y1_48 <=1 
C59: x1+x52 <=1 
C60: x1+x53-y1_53 <=1 
C61: x1+x54-y1_54 <=1 
C62: x1+x59 <=1 
C63: x1+x60 <=1 
C64: x1+x61 <=1 
C65: x1+x62-y1_62 <=1 
C66: x1+x64 <=1 
C67: x2+x3-y2_3 <=1 
C68: x2+x4 <=1 
C69: x2+x7 <=1 
C70: x2+x9 <=1 
C71: x2+x10-y2_10 <=1 
C72: x2+x11-y2_11 <=1 
C73: x2+x12-y2_12 <=1 
C74: x2+x13-y2_13 <=1 
C75: x2+x14-y2_14 <=1 
C76: x2+x20-y2_20 <=1 
C77: x2+x21-y2_21 <=1 
C78: x2+x22-y2_22 <=1 
C79: x2+x23 <=1 
C80: x2+x25-y2_25 <=1 
C81: x2+x27 <=1 
C82: x2+x28-y2_28 <=1 
C83: x2+x29 <=1 
C84: x2+x30-y2_30 <=1 
C85: x2+x31-y2_31 <=1 
C86: x2+x34 <=1 
C87: x2+x35 <=1 
C88: x2+x36-y2_36 <=1 
C89: x2+x37 <=1 
C90: x2+x38-y2_38 <=1 
C91: x2+x39-y2_39 <=1 
C92: x2+x41 <=1 
C93: x2+x42-y2_42 <=1 
C94: x2+x43 <=1 
C95: x2+x45 <=1 
C96: x2+x53-y2_53 <=1 
C97: x2+x57-y2_57 <=1 
C98: x2+x58-y2_58 <=1 
C99: x2+x59 <=1 
C100: x2+x61-y2_61 <=1 
C101: x2+x62 <=1 
C102: x2+x64 <=1 
C103: x3+x4 <=1 
C104: x3+x7-y3_7 <=1 
C105: x3+x8-y3_8 <=1 
C106: x3+x9-y3_9 <=1 
C107: x3+x12 <=1 
C108: x3+x13-y3_13 <=1 
C109: x3+x17 <=1 
C110: x3+x18 <=1 
C111: x3+x19-y3_19 <=1 
C112: x3+x20 <=1 
C113: x3+x21 <=1 
C114: x3+x22 <=1 
C115: x3+x25 <=1 
C116: x3+x26 <=1 
C117: x3+x27-y3_27 <=1 
C118: x3+x29-y3_29 <=1 
C119: x3+x30 <=1 
C120: x3+x32-y3_32 <=1 
C121: x3+x34-y3_34 <=1 
C122: x3+x35-y3_35 <=1 
C123: x3+x36-y3_36 <=1 
C124: x3+x38 <=1 
C125: x3+x40 <=1 
C126: x3+x45 <=1 
C127: x3+x46-y3_46 <=1 
C128: x3+x49 <=1 
C129: x3+x51-y3_51 <=1 
C130: x3+x52 <=1 
C131: x3+x53-y3_53 <=1 
C132: x3+x55-y3_55 <=1 
C133: x3+x57 <=1 
C134: x3+x58 <=1 
C135: x3+x59 <=1 
C136: x3+x61 <=1 
C137: x3+x62-y3_62 <=1 
C138: x3+x63-y3_63 <=1 
C139: x3+x64 <=1 
C140: x4+x5-y4_5 <=1 
C141: x4+x6 <=1 
C142: x4+x8 <=1 
C143: x4+x9 <=1 
C144: x4+x12 <=1 
C145: x4+x13-y4_13 <=1 
C146: x4+x14-y4_14 <=1 
C147: x4+x15 <=1 
C148: x4+x16 <=1 
C149: x4+x18 <=1 
C150: x4+x19 <=1 
C151: x4+x21 <=1 
C152: x4+x22 <=1 
C153: x4+x23 <=1 
C154: x4+x24-y4_24 <=1 
C155: x4+x25 <=1 
C156: x4+x28-y4_28 <=1 
C157: x4+x29-y4_29 <=1 
C158: x4+x31-y4_31 <=1 
C159: x4+x32-y4_32 <=1 
C160: x4+x33 <=1 
C161: x4+x34-y4_34 <=1 
C162: x4+x35-y4_35 <=1 
C163: x4+x36-y4_36 <=1 
C164: x4+x39-y4_39 <=1 
C165: x4+x40-y4_40 <=1 
C166: x4+x41-y4_41 <=1 
C167: x4+x42-y4_42 <=1 
C168: x4+x45 <=1 
C169: x4+x49-y4_49 <=1 
C170: x4+x50-y4_50 <=1 
C171: x4+x52-y4_52 <=1 
C172: x4+x55-y4_55 <=1 
C173: x4+x61-y4_61 <=1 
C174: x4+x64 <=1 
C175: x5+x7-y5_7 <=1 
C176: x5+x8 <=1 
C177: x5+x10 <=1 
C178: x5+x13-y5_13 <=1 
C179: x5+x14 <=1 
C180: x5+x15 <=1 
C181: x5+x20-y5_20 <=1 
C182: x5+x22 <=1 
C183: x5+x23 <=1 
C184: x5+x24-y5_24 <=1 
C185: x5+x26 <=1 
C186: x5+x29-y5_29 <=1 
C187: x5+x30-y5_30 <=1 
C188: x5+x32 <=1 
C189: x5+x34 <=1 
C190: x5+x35 <=1 
C191: x5+x36 <=1 
C192: x5+x37-y5_37 <=1 
C193: x5+x38 <=1 
C194: x5+x40 <=1 
C195: x5+x41-y5_41 <=1 
C196: x5+x43 <=1 
C197: x5+x44-y5_44 <=1 
C198: x5+x47 <=1 
C199: x5+x48-y5_48 <=1 
C200: x5+x50 <=1 
C201: x5+x51 <=1 
C202: x5+x53-y5_53 <=1 
C203: x5+x54-y5_54 <=1 
C204: x5+x56-y5_56 <=1 
C205: x5+x58-y5_58 <=1 
C206: x5+x59 <=1 
C207: x5+x60 <=1 
C208: x5+x61-y5_61 <=1 
C209: x5+x62 <=1 
C210: x5+x63-y5_63 <=1 
C211: x5+x64-y5_64 <=1 
C212: x6+x9 <=1 
C213: x6+x11 <=1 
C214: x6+x12-y6_12 <=1 
C215: x6+x13 <=1 
C216: x6+x14 <=1 
C217: x6+x15 <=1 
C218: x6+x19 <=1 
C219: x6+x22 <=1 
C220: x6+x25-y6_25 <=1 
C221: x6+x26-y6_26 <=1 
C222: x6+x27 <=1 
C223: x6+x31 <=1 
C224: x6+x32 <=1 
C225: x6+x33-y6_33 <=1 
C226: x6+x34 <=1 
C227: x6+x35-y6_35 <=1 
C228: x6+x38-y6_38 <=1 
C229: x6+x39-y6_39 <=1 
C230: x6+x40-y6_40 <=1 
C231: x6+x41 <=1 
C232: x6+x45-y6_45 <=1 
C233: x6+x48 <=1 
C234: x6+x49 <=1 
C235: x6+x51 <=1 
C236: x6+x53-y6_53 <=1 
C237: x6+x54-y6_54 <=1 
C238: x6+x55 <=1 
C239: x6+x57-y6_57 <=1 
C240: x6+x59 <=1 
C241: x6+x63-y6_63 <=1 
C242: x6+x64-y6_64 <=1 
C243: x7+x9 <=1 
C244: x7+x11-y7_11 <=1 
C245: x7+x13-y7_13 <=1 
C246: x7+x14 <=1 
C247: x7+x16 <=1 
C248: x7+x17-y7_17 <=1 
C249: x7+x18-y7_18 <=1 
C250: x7+x19 <=1 
C251: x7+x20 <=1 
C252: x7+x22-y7_22 <=1 
C253: x7+x23 <=1 
C254: x7+x24 <=1 
C255: x7+x28 <=1 
C256: x7+x29-y7_29 <=1 
C257: x7+x30-y7_30 <=1 
C258: x7+x31-y7_31 <=1 
C259: x7+x35 <=1 
C260: x7+x37 <=1 
C261: x7+x38-y7_38 <=1 
C262: x7+x39-y7_39 <=1 
C263: x7+x42-y7_42 <=1 
C264: x7+x43 <=1 
C265: x7+x44-y7_44 <=1 
C266: x7+x46-y7_46 <=1 
C267: x7+x48-y7_48 <=1 
C268: x7+x50-y7_50 <=1 
C269: x7+x51 <=1 
C270: x7+x52-y7_52 <=1 
C271: x7+x53-y7_53 <=1 
C272: x7+x54-y7_54 <=1 
C273: x7+x55-y7_55 <=1 
C274: x7+x56-y7_56 <=1 
C275: x7+x58-y7_58 <=1 
C276: x7+x59 <=1 
C277: x7+x60 <=1 
C278: x7+x61 <=1 
C279: x7+x63-y7_63 <=1 
C280: x8+x9-y8_9 <=1 
C281: x8+x10-y8_10 <=1 
C282: x8+x13 <=1 
C283: x8+x15-y8_15 <=1 
C284: x8+x18 <=1 
C285: x8+x19 <=1 
C286: x8+x20-y8_20 <=1 
C287: x8+x21-y8_21 <=1 
C288: x8+x22-y8_22 <=1 
C289: x8+x23 <=1 
C290: x8+x25 <=1 
C291: x8+x26 <=1 
C292: x8+x27 <=1 
C293: x8+x28-y8_28 <=1 
C294: x8+x29 <=1 
C295: x8+x30-y8_30 <=1 
C296: x8+x32-y8_32 <=1 
C297: x8+x34-y8_34 <=1 
C298: x8+x36-y8_36 <=1 
C299: x8+x37 <=1 
C300: x8+x38-y8_38 <=1 
C301: x8+x40 <=1 
C302: x8+x41 <=1 
C303: x8+x42-y8_42 <=1 
C304: x8+x44-y8_44 <=1 
C305: x8+x46 <=1 
C306: x8+x47-y8_47 <=1 
C307: x8+x48 <=1 
C308: x8+x50-y8_50 <=1 
C309: x8+x52 <=1 
C310: x8+x53-y8_53 <=1 
C311: x8+x54-y8_54 <=1 
C312: x8+x57-y8_57 <=1 
C313: x8+x59-y8_59 <=1 
C314: x8+x64-y8_64 <=1 
C315: x9+x10 <=1 
C316: x9+x14 <=1 
C317: x9+x15-y9_15 <=1 
C318: x9+x16 <=1 
C319: x9+x17-y9_17 <=1 
C320: x9+x19-y9_19 <=1 
C321: x9+x20-y9_20 <=1 
C322: x9+x21-y9_21 <=1 
C323: x9+x22-y9_22 <=1 
C324: x9+x25 <=1 
C325: x9+x26-y9_26 <=1 
C326: x9+x31 <=1 
C327: x9+x33-y9_33 <=1 
C328: x9+x37-y9_37 <=1 
C329: x9+x38-y9_38 <=1 
C330: x9+x39 <=1 
C331: x9+x40-y9_40 <=1 
C332: x9+x42-y9_42 <=1 
C333: x9+x45 <=1 
C334: x9+x46-y9_46 <=1 
C335: x9+x49-y9_49 <=1 
C336: x9+x52 <=1 
C337: x9+x54-y9_54 <=1 
C338: x9+x55-y9_55 <=1 
C339: x9+x56-y9_56 <=1 
C340: x9+x58-y9_58 <=1 
C341: x9+x60 <=1 
C342: x9+x63-y9_63 <=1 
C343: x10+x11-y10_11 <=1 
C344: x10+x12-y10_12 <=1 
C345: x10+x13-y10_13 <=1 
C346: x10+x14-y10_14 <=1 
C347: x10+x18 <=1 
C348: x10+x19 <=1 
C349: x10+x20 <=1 
C350: x10+x22-y10_22 <=1 
C351: x10+x23 <=1 
C352: x10+x25-y10_25 <=1 
C353: x10+x26 <=1 
C354: x10+x27-y10_27 <=1 
C355: x10+x28 <=1 
C356: x10+x31 <=1 
C357: x10+x33-y10_33 <=1 
C358: x10+x34 <=1 
C359: x10+x36-y10_36 <=1 
C360: x10+x37 <=1 
C361: x10+x38 <=1 
C362: x10+x39-y10_39 <=1 
C363: x10+x40-y10_40 <=1 
C364: x10+x42-y10_42 <=1 
C365: x10+x43 <=1 
C366: x10+x44 <=1 
C367: x10+x46-y10_46 <=1 
C368: x10+x47-y10_47 <=1 
C369: x10+x48 <=1 
C370: x10+x50-y10_50 <=1 
C371: x10+x52 <=1 
C372: x10+x57-y10_57 <=1 
C373: x10+x58 <=1 
C374: x10+x59 <=1 
C375: x10+x60-y10_60 <=1 
C376: x10+x62-y10_62 <=1 
C377: x10+x63 <=1 
C378: x11+x13 <=1 
C379: x11+x14 <=1 
C380: x11+x17 <=1 
C381: x11+x20 <=1 
C382: x11+x22-y11_22 <=1 
C383: x11+x23 <=1 
C384: x11+x24 <=1 
C385: x11+x26 <=1 
C386: x11+x28 <=1 
C387: x11+x30-y11_30 <=1 
C388: x11+x31-y11_31 <=1 
C389: x11+x33 <=1 
C390: x11+x35-y11_35 <=1 
C391: x11+x37-y11_37 <=1 
C392: x11+x38 <=1 
C393: x11+x40-y11_40 <=1 
C394: x11+x42-y11_42 <=1 
C395: x11+x45-y11_45 <=1 
C396: x11+x46-y11_46 <=1 
C397: x11+x47 <=1 
C398: x11+x53-y11_53 <=1 
C399: x11+x54-y11_54 <=1 
C400: x11+x55 <=1 
C401: x11+x58 <=1 
C402: x11+x62-y11_62 <=1 
C403: x11+x63-y11_63 <=1 
C404: x12+x13-y12_13 <=1 
C405: x12+x14 <=1 
C406: x12+x15 <=1 
C407: x12+x16-y12_16 <=1 
C408: x12+x17-y12_17 <=1 
C409: x12+x19-y12_19 <=1 
C410: x12+x20-y12_20 <=1 
C411: x12+x21-y12_21 <=1 
C412: x12+x22-y12_22 <=1 
C413: x12+x23 <=1 
C414: x12+x24 <=1 
C415: x12+x25 <=1 
C416: x12+x29 <=1 
C417: x12+x30 <=1 
C418: x12+x37-y12_37 <=1 
C419: x12+x38 <=1 
C420: x12+x39-y12_39 <=1 
C421: x12+x41-y12_41 <=1 
C422: x12+x42-y12_42 <=1 
C423: x12+x43 <=1 
C424: x12+x44 <=1 
C425: x12+x46-y12_46 <=1 
C426: x12+x47-y12_47 <=1 
C427: x12+x50 <=1 
C428: x12+x51-y12_51 <=1 
C429: x12+x53 <=1 
C430: x12+x54 <=1 
C431: x12+x57-y12_57 <=1 
C432: x12+x59-y12_59 <=1 
C433: x12+x60 <=1 
C434: x12+x63 <=1 
C435: x12+x64 <=1 
C436: x13+x14-y13_14 <=1 
C437: x13+x17 <=1 
C438: x13+x19 <=1 
C439: x13+x20 <=1 
C440: x13+x23-y13_23 <=1 
C441: x13+x24-y13_24 <=1 
C442: x13+x25-y13_25 <=1 
C443: x13+x28 <=1 
C444: x13+x31 <=1 
C445: x13+x32 <=1 
C446: x13+x33 <=1 
C447: x13+x34-y13_34 <=1 
C448: x13+x36 <=1 
C449: x13+x40 <=1 
C450: x13+x41 <=1 
C451: x13+x45 <=1 
C452: x13+x49-y13_49 <=1 
C453: x13+x53 <=1 
C454: x13+x54-y13_54 <=1 
C455: x13+x58-y13_58 <=1 
C456: x13+x62-y13_62 <=1 
C457: x13+x63-y13_63 <=1 
C458: x14+x15-y14_15 <=1 
C459: x14+x17-y14_17 <=1 
C460: x14+x18-y14_18 <=1 
C461: x14+x19-y14_19 <=1 
C462: x14+x20 <=1 
C463: x14+x21-y14_21 <=1 
C464: x14+x22 <=1 
C465: x14+x25-y14_25 <=1 
C466: x14+x28-y14_28 <=1 
C467: x14+x29 <=1 
C468: x14+x32-y14_32 <=1 
C469: x14+x35 <=1 
C470: x14+x36 <=1 
C471: x14+x38 <=1 
C472: x14+x39-y14_39 <=1 
C473: x14+x40 <=1 
C474: x14+x42 <=1 
C475: x14+x43-y14_43 <=1 
C476: x14+x46 <=1 
C477: x14+x47-y14_47 <=1 
C478: x14+x52 <=1 
C479: x14+x53-y14_53 <=1 
C480: x14+x54 <=1 
C481: x14+x55 <=1 
C482: x14+x62-y14_62 <=1 
C483: x14+x63 <=1 
C484: x14+x64-y14_64 <=1 
C485: x15+x18-y15_18 <=1 
C486: x15+x19 <=1 
C487: x15+x27 <=1 
C488: x15+x28 <=1 
C489: x15+x31 <=1 
C490: x15+x32 <=1 
C491: x15+x36-y15_36 <=1 
C492: x15+x38-y15_38 <=1 
C493: x15+x39 <=1 
C494: x15+x40-y15_40 <=1 
C495: x15+x41 <=1 
C496: x15+x42-y15_42 <=1 
C497: x15+x43 <=1 
C498: x15+x46-y15_46 <=1 
C499: x15+x48 <=1 
C500: x15+x49 <=1 
C501: x15+x50-y15_50 <=1 
C502: x15+x51 <=1 
C503: x15+x52-y15_52 <=1 
C504: x15+x54 <=1 
C505: x15+x58-y15_58 <=1 
C506: x15+x61 <=1 
C507: x15+x62-y15_62 <=1 
C508: x15+x63 <=1 
C509: x15+x64-y15_64 <=1 
C510: x16+x17 <=1 
C511: x16+x19-y16_19 <=1 
C512: x16+x20-y16_20 <=1 
C513: x16+x21 <=1 
C514: x16+x23 <=1 
C515: x16+x24-y16_24 <=1 
C516: x16+x25 <=1 
C517: x16+x31 <=1 
C518: x16+x32-y16_32 <=1 
C519: x16+x33 <=1 
C520: x16+x34-y16_34 <=1 
C521: x16+x36-y16_36 <=1 
C522: x16+x37 <=1 
C523: x16+x38-y16_38 <=1 
C524: x16+x39-y16_39 <=1 
C525: x16+x40 <=1 
C526: x16+x41-y16_41 <=1 
C527: x16+x43 <=1 
C528: x16+x44-y16_44 <=1 
C529: x16+x45 <=1 
C530: x16+x46 <=1 
C531: x16+x47 <=1 
C532: x16+x48 <=1 
C533: x16+x49-y16_49 <=1 
C534: x16+x50-y16_50 <=1 
C535: x16+x51 <=1 
C536: x16+x52-y16_52 <=1 
C537: x16+x53-y16_53 <=1 
C538: x16+x54-y16_54 <=1 
C539: x16+x55 <=1 
C540: x16+x60-y16_60 <=1 
C541: x16+x61-y16_61 <=1 
C542: x16+x62-y16_62 <=1 
C543: x17+x18 <=1 
C544: x17+x19 <=1 
C545: x17+x22-y17_22 <=1 
C546: x17+x23 <=1 
C547: x17+x25 <=1 
C548: x17+x27-y17_27 <=1 
C549: x17+x34 <=1 
C550: x17+x36 <=1 
C551: x17+x40-y17_40 <=1 
C552: x17+x41-y17_41 <=1 
C553: x17+x43 <=1 
C554: x17+x45-y17_45 <=1 
C555: x17+x46-y17_46 <=1 
C556: x17+x47-y17_47 <=1 
C557: x17+x48-y17_48 <=1 
C558: x17+x49 <=1 
C559: x17+x50-y17_50 <=1 
C560: x17+x51 <=1 
C561: x17+x53 <=1 
C562: x17+x54 <=1 
C563: x17+x55 <=1 
C564: x17+x56-y17_56 <=1 
C565: x17+x60-y17_60 <=1 
C566: x17+x61 <=1 
C567: x17+x62-y17_62 <=1 
C568: x17+x64-y17_64 <=1 
C569: x18+x19-y18_19 <=1 
C570: x18+x20 <=1 
C571: x18+x24 <=1 
C572: x18+x25-y18_25 <=1 
C573: x18+x26-y18_26 <=1 
C574: x18+x27 <=1 
C575: x18+x28-y18_28 <=1 
C576: x18+x29 <=1 
C577: x18+x30 <=1 
C578: x18+x31-y18_31 <=1 
C579: x18+x33-y18_33 <=1 
C580: x18+x34 <=1 
C581: x18+x38 <=1 
C582: x18+x39 <=1 
C583: x18+x40-y18_40 <=1 
C584: x18+x41 <=1 
C585: x18+x42 <=1 
C586: x18+x43-y18_43 <=1 
C587: x18+x44 <=1 
C588: x18+x45-y18_45 <=1 
C589: x18+x50-y18_50 <=1 
C590: x18+x51-y18_51 <=1 
C591: x18+x53 <=1 
C592: x18+x57 <=1 
C593: x18+x59 <=1 
C594: x18+x63 <=1 
C595: x19+x20 <=1 
C596: x19+x21 <=1 
C597: x19+x24-y19_24 <=1 
C598: x19+x25 <=1 
C599: x19+x26-y19_26 <=1 
C600: x19+x28 <=1 
C601: x19+x30 <=1 
C602: x19+x32 <=1 
C603: x19+x33 <=1 
C604: x19+x34 <=1 
C605: x19+x36 <=1 
C606: x19+x38-y19_38 <=1 
C607: x19+x39-y19_39 <=1 
C608: x19+x40-y19_40 <=1 
C609: x19+x43 <=1 
C610: x19+x44 <=1 
C611: x19+x46 <=1 
C612: x19+x48-y19_48 <=1 
C613: x19+x49 <=1 
C614: x19+x50-y19_50 <=1 
C615: x19+x51-y19_51 <=1 
C616: x19+x54-y19_54 <=1 
C617: x19+x56 <=1 
C618: x19+x57 <=1 
C619: x19+x58 <=1 
C620: x19+x59 <=1 
C621: x19+x61-y19_61 <=1 
C622: x19+x62-y19_62 <=1 
C623: x19+x63-y19_63 <=1 
C624: x20+x21-y20_21 <=1 
C625: x20+x22 <=1 
C626: x20+x27 <=1 
C627: x20+x30 <=1 
C628: x20+x35-y20_35 <=1 
C629: x20+x36 <=1 
C630: x20+x37 <=1 
C631: x20+x38-y20_38 <=1 
C632: x20+x39 <=1 
C633: x20+x40-y20_40 <=1 
C634: x20+x45-y20_45 <=1 
C635: x20+x47 <=1 
C636: x20+x48 <=1 
C637: x20+x49 <=1 
C638: x20+x51-y20_51 <=1 
C639: x20+x53-y20_53 <=1 
C640: x20+x55 <=1 
C641: x20+x56 <=1 
C642: x20+x59 <=1 
C643: x20+x60 <=1 
C644: x20+x61 <=1 
C645: x20+x62-y20_62 <=1 
C646: x20+x63-y20_63 <=1 
C647: x20+x64-y20_64 <=1 
C648: x21+x22-y21_22 <=1 
C649: x21+x27 <=1 
C650: x21+x28 <=1 
C651: x21+x32-y21_32 <=1 
C652: x21+x34-y21_34 <=1 
C653: x21+x36-y21_36 <=1 
C654: x21+x38-y21_38 <=1 
C655: x21+x40-y21_40 <=1 
C656: x21+x41-y21_41 <=1 
C657: x21+x42 <=1 
C658: x21+x46 <=1 
C659: x21+x49 <=1 
C660: x21+x50 <=1 
C661: x21+x51 <=1 
C662: x21+x52 <=1 
C663: x21+x54-y21_54 <=1 
C664: x21+x56 <=1 
C665: x21+x57-y21_57 <=1 
C666: x22+x25-y22_25 <=1 
C667: x22+x26 <=1 
C668: x22+x28-y22_28 <=1 
C669: x22+x29 <=1 
C670: x22+x33 <=1 
C671: x22+x34 <=1 
C672: x22+x37 <=1 
C673: x22+x38-y22_38 <=1 
C674: x22+x42-y22_42 <=1 
C675: x22+x44 <=1 
C676: x22+x48-y22_48 <=1 
C677: x22+x49 <=1 
C678: x22+x50-y22_50 <=1 
C679: x22+x51-y22_51 <=1 
C680: x22+x53-y22_53 <=1 
C681: x22+x55 <=1 
C682: x22+x56 <=1 
C683: x22+x57 <=1 
C684: x22+x58-y22_58 <=1 
C685: x22+x61 <=1 
C686: x22+x62 <=1 
C687: x22+x63-y22_63 <=1 
C688: x23+x25 <=1 
C689: x23+x27 <=1 
C690: x23+x28 <=1 
C691: x23+x29 <=1 
C692: x23+x31-y23_31 <=1 
C693: x23+x32-y23_32 <=1 
C694: x23+x33-y23_33 <=1 
C695: x23+x35 <=1 
C696: x23+x39 <=1 
C697: x23+x41 <=1 
C698: x23+x42-y23_42 <=1 
C699: x23+x44-y23_44 <=1 
C700: x23+x46-y23_46 <=1 
C701: x23+x50-y23_50 <=1 
C702: x23+x52-y23_52 <=1 
C703: x23+x60-y23_60 <=1 
C704: x23+x61 <=1 
C705: x23+x63 <=1 
C706: x23+x64 <=1 
C707: x24+x25-y24_25 <=1 
C708: x24+x28 <=1 
C709: x24+x29 <=1 
C710: x24+x30 <=1 
C711: x24+x32 <=1 
C712: x24+x35-y24_35 <=1 
C713: x24+x40-y24_40 <=1 
C714: x24+x42 <=1 
C715: x24+x43-y24_43 <=1 
C716: x24+x44-y24_44 <=1 
C717: x24+x48 <=1 
C718: x24+x50 <=1 
C719: x24+x52-y24_52 <=1 
C720: x24+x53-y24_53 <=1 
C721: x24+x54 <=1 
C722: x24+x62 <=1 
C723: x24+x64-y24_64 <=1 
C724: x25+x26-y25_26 <=1 
C725: x25+x27-y25_27 <=1 
C726: x25+x28 <=1 
C727: x25+x29 <=1 
C728: x25+x31 <=1 
C729: x25+x32-y25_32 <=1 
C730: x25+x34-y25_34 <=1 
C731: x25+x37 <=1 
C732: x25+x39 <=1 
C733: x25+x41-y25_41 <=1 
C734: x25+x47-y25_47 <=1 
C735: x25+x48-y25_48 <=1 
C736: x25+x49-y25_49 <=1 
C737: x25+x50-y25_50 <=1 
C738: x25+x54-y25_54 <=1 
C739: x25+x55-y25_55 <=1 
C740: x25+x57-y25_57 <=1 
C741: x25+x58 <=1 
C742: x25+x59-y25_59 <=1 
C743: x25+x61 <=1 
C744: x25+x64 <=1 
C745: x26+x29-y26_29 <=1 
C746: x26+x31-y26_31 <=1 
C747: x26+x32 <=1 
C748: x26+x33 <=1 
C749: x26+x36-y26_36 <=1 
C750: x26+x37 <=1 
C751: x26+x38-y26_38 <=1 
C752: x26+x40 <=1 
C753: x26+x42-y26_42 <=1 
C754: x26+x43 <=1 
C755: x26+x44-y26_44 <=1 
C756: x26+x45-y26_45 <=1 
C757: x26+x46 <=1 
C758: x26+x49 <=1 
C759: x26+x50 <=1 
C760: x26+x51 <=1 
C761: x26+x52 <=1 
C762: x26+x53 <=1 
C763: x26+x54-y26_54 <=1 
C764: x26+x57-y26_57 <=1 
C765: x26+x59-y26_59 <=1 
C766: x26+x60-y26_60 <=1 
C767: x26+x62-y26_62 <=1 
C768: x26+x63-y26_63 <=1 
C769: x26+x64-y26_64 <=1 
C770: x27+x29 <=1 
C771: x27+x30 <=1 
C772: x27+x31 <=1 
C773: x27+x32 <=1 
C774: x27+x34 <=1 
C775: x27+x35-y27_35 <=1 
C776: x27+x36-y27_36 <=1 
C777: x27+x37 <=1 
C778: x27+x41 <=1 
C779: x27+x42-y27_42 <=1 
C780: x27+x48-y27_48 <=1 
C781: x27+x49-y27_49 <=1 
C782: x27+x56 <=1 
C783: x27+x57 <=1 
C784: x27+x58 <=1 
C785: x27+x59-y27_59 <=1 
C786: x27+x60-y27_60 <=1 
C787: x27+x62 <=1 
C788: x28+x29 <=1 
C789: x28+x31 <=1 
C790: x28+x32-y28_32 <=1 
C791: x28+x33 <=1 
C792: x28+x35 <=1 
C793: x28+x36 <=1 
C794: x28+x37-y28_37 <=1 
C795: x28+x39-y28_39 <=1 
C796: x28+x42 <=1 
C797: x28+x43-y28_43 <=1 
C798: x28+x45 <=1 
C799: x28+x46-y28_46 <=1 
C800: x28+x47 <=1 
C801: x28+x49-y28_49 <=1 
C802: x28+x51 <=1 
C803: x28+x52-y28_52 <=1 
C804: x28+x54-y28_54 <=1 
C805: x28+x55-y28_55 <=1 
C806: x28+x56-y28_56 <=1 
C807: x28+x58 <=1 
C808: x28+x59-y28_59 <=1 
C809: x28+x60 <=1 
C810: x28+x61 <=1 
C811: x28+x62 <=1 
C812: x28+x63-y28_63 <=1 
C813: x29+x31-y29_31 <=1 
C814: x29+x32-y29_32 <=1 
C815: x29+x34-y29_34 <=1 
C816: x29+x35 <=1 
C817: x29+x36-y29_36 <=1 
C818: x29+x38-y29_38 <=1 
C819: x29+x39-y29_39 <=1 
C820: x29+x41-y29_41 <=1 
C821: x29+x42-y29_42 <=1 
C822: x29+x45 <=1 
C823: x29+x47 <=1 
C824: x29+x48-y29_48 <=1 
C825: x29+x49 <=1 
C826: x29+x50 <=1 
C827: x29+x51 <=1 
C828: x29+x52-y29_52 <=1 
C829: x29+x53 <=1 
C830: x29+x54-y29_54 <=1 
C831: x29+x55 <=1 
C832: x29+x56-y29_56 <=1 
C833: x29+x57-y29_57 <=1 
C834: x29+x59-y29_59 <=1 
C835: x29+x60-y29_60 <=1 
C836: x29+x62 <=1 
C837: x29+x63-y29_63 <=1 
C838: x30+x32 <=1 
C839: x30+x33-y30_33 <=1 
C840: x30+x36 <=1 
C841: x30+x37-y30_37 <=1 
C842: x30+x38 <=1 
C843: x30+x39-y30_39 <=1 
C844: x30+x42-y30_42 <=1 
C845: x30+x43 <=1 
C846: x30+x44-y30_44 <=1 
C847: x30+x45 <=1 
C848: x30+x46-y30_46 <=1 
C849: x30+x47-y30_47 <=1 
C850: x30+x48-y30_48 <=1 
C851: x30+x49-y30_49 <=1 
C852: x30+x53 <=1 
C853: x30+x56 <=1 
C854: x30+x60 <=1 
C855: x30+x61 <=1 
C856: x30+x62-y30_62 <=1 
C857: x30+x64 <=1 
C858: x31+x33-y31_33 <=1 
C859: x31+x34-y31_34 <=1 
C860: x31+x35 <=1 
C861: x31+x37 <=1 
C862: x31+x39-y31_39 <=1 
C863: x31+x40-y31_40 <=1 
C864: x31+x41 <=1 
C865: x31+x42-y31_42 <=1 
C866: x31+x44 <=1 
C867: x31+x50 <=1 
C868: x31+x51-y31_51 <=1 
C869: x31+x53-y31_53 <=1 
C870: x31+x54 <=1 
C871: x31+x55-y31_55 <=1 
C872: x31+x57 <=1 
C873: x31+x58-y31_58 <=1 
C874: x31+x62 <=1 
C875: x31+x64 <=1 
C876: x32+x33-y32_33 <=1 
C877: x32+x34 <=1 
C878: x32+x35 <=1 
C879: x32+x37 <=1 
C880: x32+x40-y32_40 <=1 
C881: x32+x44 <=1 
C882: x32+x45 <=1 
C883: x32+x47-y32_47 <=1 
C884: x32+x49 <=1 
C885: x32+x50-y32_50 <=1 
C886: x32+x52-y32_52 <=1 
C887: x32+x55 <=1 
C888: x32+x56-y32_56 <=1 
C889: x32+x58-y32_58 <=1 
C890: x32+x59-y32_59 <=1 
C891: x32+x61-y32_61 <=1 
C892: x32+x62 <=1 
C893: x32+x64-y32_64 <=1 
C894: x33+x34-y33_34 <=1 
C895: x33+x36-y33_36 <=1 
C896: x33+x39 <=1 
C897: x33+x42 <=1 
C898: x33+x43-y33_43 <=1 
C899: x33+x45-y33_45 <=1 
C900: x33+x46-y33_46 <=1 
C901: x33+x48-y33_48 <=1 
C902: x33+x49-y33_49 <=1 
C903: x33+x51-y33_51 <=1 
C904: x33+x52 <=1 
C905: x33+x54-y33_54 <=1 
C906: x33+x55-y33_55 <=1 
C907: x33+x56-y33_56 <=1 
C908: x33+x57 <=1 
C909: x33+x58-y33_58 <=1 
C910: x33+x59-y33_59 <=1 
C911: x33+x60 <=1 
C912: x33+x61-y33_61 <=1 
C913: x33+x64 <=1 
C914: x34+x35-y34_35 <=1 
C915: x34+x38 <=1 
C916: x34+x39 <=1 
C917: x34+x41 <=1 
C918: x34+x42 <=1 
C919: x34+x43 <=1 
C920: x34+x45-y34_45 <=1 
C921: x34+x46 <=1 
C922: x34+x50-y34_50 <=1 
C923: x34+x51 <=1 
C924: x34+x52 <=1 
C925: x34+x53-y34_53 <=1 
C926: x34+x54-y34_54 <=1 
C927: x34+x57 <=1 
C928: x34+x58 <=1 
C929: x34+x59-y34_59 <=1 
C930: x34+x60 <=1 
C931: x34+x62 <=1 
C932: x34+x63-y34_63 <=1 
C933: x34+x64-y34_64 <=1 
C934: x35+x38-y35_38 <=1 
C935: x35+x39-y35_39 <=1 
C936: x35+x40 <=1 
C937: x35+x41 <=1 
C938: x35+x44 <=1 
C939: x35+x45-y35_45 <=1 
C940: x35+x46 <=1 
C941: x35+x49-y35_49 <=1 
C942: x35+x50-y35_50 <=1 
C943: x35+x51-y35_51 <=1 
C944: x35+x52-y35_52 <=1 
C945: x35+x55 <=1 
C946: x35+x56 <=1 
C947: x35+x59-y35_59 <=1 
C948: x35+x63-y35_63 <=1 
C949: x36+x37 <=1 
C950: x36+x39 <=1 
C951: x36+x40-y36_40 <=1 
C952: x36+x44 <=1 
C953: x36+x45-y36_45 <=1 
C954: x36+x46-y36_46 <=1 
C955: x36+x50-y36_50 <=1 
C956: x36+x53-y36_53 <=1 
C957: x36+x54 <=1 
C958: x36+x56-y36_56 <=1 
C959: x36+x57 <=1 
C960: x36+x60 <=1 
C961: x36+x61 <=1 
C962: x36+x62-y36_62 <=1 
C963: x36+x63-y36_63 <=1 
C964: x37+x39 <=1 
C965: x37+x41 <=1 
C966: x37+x43 <=1 
C967: x37+x45 <=1 
C968: x37+x46-y37_46 <=1 
C969: x37+x48 <=1 
C970: x37+x49-y37_49 <=1 
C971: x37+x50-y37_50 <=1 
C972: x37+x51-y37_51 <=1 
C973: x37+x52-y37_52 <=1 
C974: x37+x53-y37_53 <=1 
C975: x37+x56 <=1 
C976: x37+x57-y37_57 <=1 
C977: x37+x58-y37_58 <=1 
C978: x37+x59-y37_59 <=1 
C979: x37+x60 <=1 
C980: x37+x62-y37_62 <=1 
C981: x37+x63-y37_63 <=1 
C982: x38+x39-y38_39 <=1 
C983: x38+x40-y38_40 <=1 
C984: x38+x41 <=1 
C985: x38+x43-y38_43 <=1 
C986: x38+x44 <=1 
C987: x38+x45-y38_45 <=1 
C988: x38+x48-y38_48 <=1 
C989: x38+x49 <=1 
C990: x38+x50 <=1 
C991: x38+x51-y38_51 <=1 
C992: x38+x52-y38_52 <=1 
C993: x38+x54-y38_54 <=1 
C994: x38+x55 <=1 
C995: x38+x57-y38_57 <=1 
C996: x38+x58 <=1 
C997: x38+x59-y38_59 <=1 
C998: x38+x60 <=1 
C999: x38+x64-y38_64 <=1 
C1000: x39+x40 <=1 
C1001: x39+x41-y39_41 <=1 
C1002: x39+x42-y39_42 <=1 
C1003: x39+x43 <=1 
C1004: x39+x44-y39_44 <=1 
C1005: x39+x45 <=1 
C1006: x39+x49 <=1 
C1007: x39+x50-y39_50 <=1 
C1008: x39+x52 <=1 
C1009: x39+x53 <=1 
C1010: x39+x55 <=1 
C1011: x39+x56-y39_56 <=1 
C1012: x39+x57-y39_57 <=1 
C1013: x39+x58-y39_58 <=1 
C1014: x39+x59 <=1 
C1015: x39+x60-y39_60 <=1 
C1016: x39+x61 <=1 
C1017: x39+x62 <=1 
C1018: x40+x41-y40_41 <=1 
C1019: x40+x43-y40_43 <=1 
C1020: x40+x45 <=1 
C1021: x40+x46 <=1 
C1022: x40+x47-y40_47 <=1 
C1023: x40+x48-y40_48 <=1 
C1024: x40+x49-y40_49 <=1 
C1025: x40+x50-y40_50 <=1 
C1026: x40+x51-y40_51 <=1 
C1027: x40+x52 <=1 
C1028: x40+x53 <=1 
C1029: x40+x55-y40_55 <=1 
C1030: x40+x56-y40_56 <=1 
C1031: x40+x57 <=1 
C1032: x40+x59-y40_59 <=1 
C1033: x40+x62 <=1 
C1034: x40+x63-y40_63 <=1 
C1035: x40+x64 <=1 
C1036: x41+x45-y41_45 <=1 
C1037: x41+x46 <=1 
C1038: x41+x49 <=1 
C1039: x41+x50 <=1 
C1040: x41+x51 <=1 
C1041: x41+x52-y41_52 <=1 
C1042: x41+x53-y41_53 <=1 
C1043: x41+x54-y41_54 <=1 
C1044: x41+x55 <=1 
C1045: x41+x56 <=1 
C1046: x41+x57-y41_57 <=1 
C1047: x41+x58 <=1 
C1048: x41+x59 <=1 
C1049: x41+x61-y41_61 <=1 
C1050: x41+x64 <=1 
C1051: x42+x43-y42_43 <=1 
C1052: x42+x44-y42_44 <=1 
C1053: x42+x45-y42_45 <=1 
C1054: x42+x46 <=1 
C1055: x42+x47-y42_47 <=1 
C1056: x42+x49-y42_49 <=1 
C1057: x42+x51 <=1 
C1058: x42+x54 <=1 
C1059: x42+x55-y42_55 <=1 
C1060: x42+x56-y42_56 <=1 
C1061: x42+x57 <=1 
C1062: x42+x58 <=1 
C1063: x42+x59 <=1 
C1064: x42+x61-y42_61 <=1 
C1065: x42+x63 <=1 
C1066: x43+x46 <=1 
C1067: x43+x47-y43_47 <=1 
C1068: x43+x49 <=1 
C1069: x43+x50 <=1 
C1070: x43+x51 <=1 
C1071: x43+x52-y43_52 <=1 
C1072: x43+x54-y43_54 <=1 
C1073: x43+x55 <=1 
C1074: x43+x56 <=1 
C1075: x43+x57-y43_57 <=1 
C1076: x43+x58-y43_58 <=1 
C1077: x43+x60-y43_60 <=1 
C1078: x43+x63-y43_63 <=1 
C1079: x43+x64-y43_64 <=1 
C1080: x44+x45-y44_45 <=1 
C1081: x44+x47 <=1 
C1082: x44+x49 <=1 
C1083: x44+x52 <=1 
C1084: x44+x53-y44_53 <=1 
C1085: x44+x54 <=1 
C1086: x44+x55 <=1 
C1087: x44+x56 <=1 
C1088: x44+x57-y44_57 <=1 
C1089: x44+x58 <=1 
C1090: x44+x59 <=1 
C1091: x44+x60 <=1 
C1092: x44+x61 <=1 
C1093: x44+x63-y44_63 <=1 
C1094: x44+x64-y44_64 <=1 
C1095: x45+x46-y45_46 <=1 
C1096: x45+x49-y45_49 <=1 
C1097: x45+x51 <=1 
C1098: x45+x53 <=1 
C1099: x45+x55 <=1 
C1100: x45+x58-y45_58 <=1 
C1101: x45+x59 <=1 
C1102: x45+x61-y45_61 <=1 
C1103: x45+x62-y45_62 <=1 
C1104: x45+x63 <=1 
C1105: x46+x51-y46_51 <=1 
C1106: x46+x53 <=1 
C1107: x46+x55-y46_55 <=1 
C1108: x46+x59-y46_59 <=1 
C1109: x46+x60 <=1 
C1110: x46+x61-y46_61 <=1 
C1111: x46+x63 <=1 
C1112: x46+x64-y46_64 <=1 
C1113: x47+x49-y47_49 <=1 
C1114: x47+x50-y47_50 <=1 
C1115: x47+x52-y47_52 <=1 
C1116: x47+x53 <=1 
C1117: x47+x54 <=1 
C1118: x47+x55-y47_55 <=1 
C1119: x47+x57-y47_57 <=1 
C1120: x47+x59 <=1 
C1121: x47+x60 <=1 
C1122: x48+x52-y48_52 <=1 
C1123: x48+x53-y48_53 <=1 
C1124: x48+x56-y48_56 <=1 
C1125: x48+x57 <=1 
C1126: x48+x58-y48_58 <=1 
C1127: x48+x59-y48_59 <=1 
C1128: x48+x61-y48_61 <=1 
C1129: x49+x50-y49_50 <=1 
C1130: x49+x53 <=1 
C1131: x49+x55-y49_55 <=1 
C1132: x49+x56-y49_56 <=1 
C1133: x49+x57-y49_57 <=1 
C1134: x49+x58 <=1 
C1135: x49+x59-y49_59 <=1 
C1136: x49+x60 <=1 
C1137: x49+x61 <=1 
C1138: x49+x62 <=1 
C1139: x50+x51 <=1 
C1140: x50+x52 <=1 
C1141: x50+x53 <=1 
C1142: x50+x54-y50_54 <=1 
C1143: x50+x55-y50_55 <=1 
C1144: x50+x56-y50_56 <=1 
C1145: x50+x58 <=1 
C1146: x50+x60-y50_60 <=1 
C1147: x50+x62-y50_62 <=1 
C1148: x50+x63 <=1 
C1149: x51+x52-y51_52 <=1 
C1150: x51+x53 <=1 
C1151: x51+x54-y51_54 <=1 
C1152: x51+x55 <=1 
C1153: x51+x58-y51_58 <=1 
C1154: x51+x62 <=1 
C1155: x51+x63 <=1 
C1156: x52+x53-y52_53 <=1 
C1157: x52+x54-y52_54 <=1 
C1158: x52+x55-y52_55 <=1 
C1159: x52+x56-y52_56 <=1 
C1160: x52+x58 <=1 
C1161: x52+x59 <=1 
C1162: x52+x60 <=1 
C1163: x52+x61-y52_61 <=1 
C1164: x52+x64 <=1 
C1165: x53+x54-y53_54 <=1 
C1166: x53+x55 <=1 
C1167: x53+x57-y53_57 <=1 
C1168: x53+x58-y53_58 <=1 
C1169: x53+x60-y53_60 <=1 
C1170: x53+x61 <=1 
C1171: x53+x62 <=1 
C1172: x53+x64-y53_64 <=1 
C1173: x54+x56 <=1 
C1174: x54+x57-y54_57 <=1 
C1175: x54+x58-y54_58 <=1 
C1176: x54+x60-y54_60 <=1 
C1177: x55+x57-y55_57 <=1 
C1178: x55+x58 <=1 
C1179: x55+x60 <=1 
C1180: x55+x61-y55_61 <=1 
C1181: x55+x62 <=1 
C1182: x55+x63 <=1 
C1183: x55+x64-y55_64 <=1 
C1184: x56+x57 <=1 
C1185: x56+x59-y56_59 <=1 
C1186: x56+x61-y56_61 <=1 
C1187: x56+x63 <=1 
C1188: x57+x58-y57_58 <=1 
C1189: x57+x60-y57_60 <=1 
C1190: x57+x61-y57_61 <=1 
C1191: x57+x62-y57_62 <=1 
C1192: x57+x64 <=1 
C1193: x58+x59 <=1 
C1194: x58+x62-y58_62 <=1 
C1195: x58+x64-y58_64 <=1 
C1196: x59+x60-y59_60 <=1 
C1197: x59+x62 <=1 
C1198: x59+x64 <=1 
C1199: x60+x63 <=1 
C1200: x60+x64 <=1 
C1201: x61+x63 <=1 
C1202: x61+x64-y61_64 <=1 
C1203: x62+x63 <=1 
C1204: x63+x64-y63_64 <=1 

binary
x0
x1
x2
x3
x4
x5
x6
x7
x8
x9
x10
x11
x12
x13
x14
x15
x16
x17
x18
x19
x20
x21
x22
x23
x24
x25
x26
x27
x28
x29
x30
x31
x32
x33
x34
x35
x36
x37
x38
x39
x40
x41
x42
x43
x44
x45
x46
x47
x48
x49
x50
x51
x52
x53
x54
x55
x56
x57
x58
x59
x60
x61
x62
x63
x64
