problem_generation/data/GISP/train/er_n=65_m=1204_p=0.60_SET2_setparam=100.00_alpha=0.50_423.sol
objective value:                                 1271
x2                                                  1 	(obj:100)
x12                                                 1 	(obj:100)
x18                                                 1 	(obj:100)
x31                                                 1 	(obj:100)
x32                                                 1 	(obj:100)
x33                                                 1 	(obj:100)
x36                                                 1 	(obj:100)
x46                                                 1 	(obj:100)
x47                                                 1 	(obj:100)
x48                                                 1 	(obj:100)
x51                                                 1 	(obj:100)
x56                                                 1 	(obj:100)
x58                                                 1 	(obj:100)
y33_56                                              1 	(obj:-1)
y48_58                                              1 	(obj:-1)
y2_36                                               1 	(obj:-1)
y2_31                                               1 	(obj:-1)
y36_56                                              1 	(obj:-1)
y51_58                                              1 	(obj:-1)
y2_12                                               1 	(obj:-1)
y32_58                                              1 	(obj:-1)
y31_33                                              1 	(obj:-1)
y31_51                                              1 	(obj:-1)
y12_47                                              1 	(obj:-1)
y33_51                                              1 	(obj:-1)
y33_46                                              1 	(obj:-1)
y2_58                                               1 	(obj:-1)
y18_33                                              1 	(obj:-1)
y33_36                                              1 	(obj:-1)
y36_46                                              1 	(obj:-1)
y48_56                                              1 	(obj:-1)
y12_51                                              1 	(obj:-1)
y32_47                                              1 	(obj:-1)
y32_56                                              1 	(obj:-1)
y12_46                                              1 	(obj:-1)
y32_33                                              1 	(obj:-1)
y31_58                                              1 	(obj:-1)
y18_51                                              1 	(obj:-1)
y33_58                                              1 	(obj:-1)
y46_51                                              1 	(obj:-1)
y33_48                                              1 	(obj:-1)
y18_31                                              1 	(obj:-1)
